param wells := 5;
param rigs := 3;
param BM := 7500;
param q := 
 1  2
 2  1
 3  3
;
param: l d p := 
 1    3    11.14    36.99
 2    1    12.81     1.31
 3    2    20.29    75.80
 4    2    17.70    45.56
 5    2    28.32    17.84
;
param t: 1 2 3 4 5 :=
 1    39.60    42.05    29.92    10.95    13.43 
 2    27.08     9.17     2.33    17.30    40.49 
 3    32.39    37.96    24.85     2.96    33.07 
 4    24.43    16.33    30.58    20.12    47.90 
 5    30.02    38.25     3.80    16.29     8.13 
;
param e: 1 2 3 4 5 :=
 1    10.00    23.86    15.78     8.68    23.80 
 2    20.59     8.53    18.95    13.19     3.50 
 3    25.20    22.67    25.53    12.62    16.21 
;
